p cnf 30 52
-22 13 0
22 -13 0
-24 13 0
24 -13 0
-26 21 0
26 -21 0
-28 21 0
28 -21 0
-30 11 0
30 -11 0
-32 11 0
32 -11 0
-34 22 30 0
-34 22 26 0
-34 30 -26 0
34 -30 -26 0
34 -22 26 0
34 -22 -30 0
-36 6 24 0
-36 6 28 0
-36 24 -28 0
36 -24 -28 0
36 -6 28 0
36 -6 -24 0
-38 8 0
38 -8 0
-40 8 0
40 -8 0
-42 5 38 0
-42 5 23 0
-42 38 -23 0
42 -38 -23 0
42 -5 23 0
42 -5 -38 0
6 19 0
6 10 0
-6 -19 -10 0
-7 36 0
7 -36 0
8 34 0
8 18 0
-8 -34 -18 0
-9 40 0
9 -40 0
10 15 0
10 1 0
-10 -15 -1 0
11 4 0
11 14 0
-11 -4 -14 0
12 17 0
12 2 0
-12 -17 -2 0
13 42 0
13 16 0
-13 -42 -16 0
-14 3 0
14 -3 0
-15 3 0
15 -3 0
-16 32 0
16 -32 0
-17 32 0
17 -32 0
-18 12 0
18 -12 0
-19 12 0
19 -12 0
-64 55 0
64 -55 0
-66 55 0
66 -55 0
-68 63 0
68 -63 0
-70 63 0
70 -63 0
-72 53 0
72 -53 0
-74 53 0
74 -53 0
-76 64 72 0
-76 64 68 0
-76 72 -68 0
76 -72 -68 0
76 -64 68 0
76 -64 -72 0
-78 48 66 0
-78 48 70 0
-78 66 -70 0
78 -66 -70 0
78 -48 70 0
78 -48 -66 0
-80 50 0
80 -50 0
-82 50 0
82 -50 0
-84 47 80 0
-84 47 65 0
-84 80 -65 0
84 -80 -65 0
84 -47 65 0
84 -47 -80 0
48 61 0
48 52 0
-48 -61 -52 0
-49 78 0
49 -78 0
50 76 0
50 60 0
-50 -76 -60 0
-51 82 0
51 -82 0
52 57 0
52 43 0
-52 -57 -43 0
53 46 0
53 56 0
-53 -46 -56 0
54 59 0
54 44 0
-54 -59 -44 0
55 84 0
55 58 0
-55 -84 -58 0
-56 45 0
56 -45 0
-57 45 0
57 -45 0
-58 74 0
58 -74 0
-59 74 0
59 -74 0
-60 54 0
60 -54 0
-61 54 0
61 -54 0
-1 85 0
1 -85 0
-43 85 0
43 -85 0
-2 86 0
2 -86 0
-44 86 0
44 -86 0
-3 87 0
3 -87 0
-45 87 0
45 -87 0
-4 88 0
4 -88 0
-46 88 0
46 -88 0
-5 89 0
5 -89 0
-47 89 0
47 -89 0
90 -7 49 0
90 7 -49 0
-90 -7 -49 0
-90 7 49 0
91 -9 51 0
91 9 -51 0
-91 -9 -51 0
-91 9 51 0
92 -90 0
92 -91 0
-92 90 91 0
92 0
-1 0
-2 0
3 0
-4 0
-5 0
-21 0
-23 0
